c WARNING: for repeatability, setting FPU to use double precision
d VARIABLES            73340        
d CONSTRAINTS          294649       
c ============================[ Problem Statistics ]=============================
c |                                                                             |
c |  Number of variables:         73340                                         |
c |  Number of clauses:          294649                                         |
c |  Parse time:                   0.04 s                                       |
c |                                                                             |
c ============================[ Search Statistics ]==============================
c | Conflicts |          ORIGINAL         |          LEARNT          | Progress |
c |           |    Vars  Clauses Literals |    Limit  Clauses Lit/Cl |          |
c ===============================================================================
c |       100 |   54070   245019   598113 |    89840      100     39 | 26.275 % |
c |       250 |   54070   245019   598113 |    98824      250     47 | 26.275 % |
c |       475 |   54070   245019   598113 |   108706      475     95 | 26.275 % |
c |       812 |   54070   245019   598113 |   119577      812    120 | 26.275 % |
c |      1318 |   54070   245019   598113 |   131535     1318    140 | 26.275 % |
c |      2077 |   54070   245019   598113 |   144688     2077    130 | 26.275 % |
c |      3216 |   54070   245019   598113 |   159157     3216    149 | 26.275 % |
c |      4924 |   54070   245019   598113 |   175073     4924    127 | 26.275 % |
c |      7486 |   54070   245019   598113 |   192580     7486    131 | 26.275 % |
c |     11330 |   54070   245019   598113 |   211838    11330    131 | 26.275 % |
c |     17096 |   54070   245019   598113 |   233022    17096    128 | 26.275 % |
c |     25745 |   54070   245019   598113 |   256324    25745    132 | 26.275 % |
c |     38719 |   54070   245019   598113 |   281957    38719    144 | 26.275 % |
c |     58180 |   54070   245019   598113 |   310153    58180    139 | 26.275 % |
c |     87372 |   54070   245019   598113 |   341168    87372    142 | 26.275 % |
c |    131161 |   54070   245019   598113 |   375285   131161    144 | 26.275 % |
c |    196845 |   54070   245019   598113 |   412813   196845    140 | 26.275 % |
c |    295371 |   54070   245019   598113 |   454095   295371    145 | 26.275 % |
c |    443160 |   54070   245019   598113 |   499504   443160    139 | 26.275 % |
c |    664843 |   54070   245019   598113 |   549455   177937    105 | 26.275 % |
c |    997368 |   54070   245019   598113 |   604400   510462    101 | 26.275 % |
c |   1496156 |   54070   245019   598113 |   664840   401080    106 | 26.275 % |
c |   2244338 |   54070   245019   598113 |   731324   498904     91 | 26.275 % |
c |   3366612 |   54070   245019   598113 |   804457   183831     82 | 26.275 % |
c ===============================================================================
c restarts              : 8189
c conflicts             : 4620440        (2578 /sec)
c decisions             : 8814207        (0.00 % random) (4919 /sec)
c propagations          : 3787512129     (2113628 /sec)
c conflict literals     : 471538899      (32.45 % deleted)
d RESTARTS             8189
d FAILURES             4620440      
d NODES                8814207      
d BACKTRACKS           8814207      
d PROPAGATIONS         3787512129   
d NOGOODSIZE           102.05 
d MEMORY               500.00 
d TIME                 1791.95 

s UNKNOWN
